# Objective value = 2.9818725394819603e+02
x[0] 1
x[1] 0
x[2] 0
x[3] 0
x[4] 0
x[5] 1
x[6] 0
x[7] 0
x[8] 1
x[9] 1
x[10] 1
x[11] 1
x[12] 1
x[13] 0
x[14] 0
x[15] 1
x[16] 0
x[17] 0
x[18] 0
x[19] 0
x[20] 0
x[21] 0
x[22] 1
x[23] 1
x[24] 1
x[25] 0
x[26] 0
x[27] 1
x[28] 1
x[29] 0
x[30] 1
x[31] 0
x[32] 0
x[33] 1
x[34] 0
x[35] 0
x[36] 1
x[37] 0
x[38] 1
x[39] 0
x[40] 0
x[41] 1
x[42] 1
x[43] 1
x[44] 1
x[45] 0
x[46] 1
x[47] 0
x[48] 1
x[49] 0
x[50] 0
x[51] 0
x[52] 1
x[53] 1
x[54] 0
x[55] -6.0005068047554220e-07
x[56] 0
x[57] 0
x[58] 1
x[59] 1
x[60] 1
x[61] 0
x[62] 1
x[63] 1
x[64] 0
x[65] 1
x[66] 0
x[67] 1
x[68] 0
x[69] 0
x[70] 0
x[71] 0
x[72] 0
x[73] 0
x[74] 0
x[75] 0
x[76] 1
x[77] 1
x[78] 1
x[79] 0
x[80] 1
x[81] 0
x[82] 1
x[83] 1
x[84] 0
x[85] 1
x[86] 1
x[87] 1
x[88] 0
x[89] 1
x[90] 0
x[91] 0
x[92] 1
x[93] 0
x[94] 1
x[95] 1
x[96] 1
x[97] 1
x[98] 0
x[99] 0
x[100] 0
x[101] 1.0000006003827595e+00
x[102] 0
x[103] 0
x[104] 0
x[105] 0
x[106] -6.0338401386417218e-07
x[107] 1
x[108] 0
x[109] 0
x[110] 1
x[111] 0
x[112] 1
x[113] 0
x[114] 1
x[115] 1
x[116] 1
x[117] 1
x[118] 1
x[119] 1
x[120] 0
x[121] 1
x[122] 0
x[123] 0
x[124] 1
x[125] 1
x[126] 0
x[127] 1
x[128] 1
x[129] 0
x[130] 0
x[131] 1
x[132] 1
x[133] 0
x[134] 1
x[135] 1
x[136] 1
x[137] 1
x[138] 0
x[139] 1
x[140] 1
x[141] 0
x[142] 1
x[143] 0
x[144] 1
x[145] 0
x[146] 1
x[147] 1
x[148] 0
x[149] 0
x[150] 0
x[151] 0
x[152] 0
x[153] 1
x[154] 0
x[155] 1
x[156] 0
x[157] 0
x[158] 0
x[159] 1
x[160] 1
x[161] 0
x[162] 0
x[163] 0
x[164] 1
x[165] 0
x[166] 0
x[167] 1
x[168] 0
x[169] 0
x[170] 0
x[171] 1
x[172] 0
x[173] 1
x[174] 1
x[175] 0
x[176] 0
x[177] 1
x[178] 0
x[179] 1
x[180] 0
x[181] 1
x[182] 1
x[183] 1
x[184] 1
x[185] 1
x[186] 1
x[187] 0
x[188] 1
x[189] 1
x[190] 0
x[191] 1
x[192] 0
x[193] 0
x[194] 0
x[195] 1
x[196] 1
x[197] 0
x[198] 1
x[199] 1
x[200] 0
x[201] 0
x[202] 0
x[203] 0
x[204] 1
x[205] 1
x[206] 0
x[207] 0
x[208] 1
x[209] 1
x[210] 1
x[211] 0
x[212] 0
x[213] 0
x[214] 0
x[215] 1
x[216] 0
x[217] 1
x[218] 0
x[219] 1
x[220] 1
x[221] 1
x[222] 0
x[223] 1
x[224] 1
x[225] 0
x[226] 0
x[227] 0
x[228] 0
x[229] 0
x[230] 1
x[231] 1
x[232] 1
x[233] 1
x[234] 1
x[235] 1
x[236] 0
x[237] 1
x[238] 0
x[239] 0
x[240] 1
x[241] 1
x[242] 0
x[243] 0
x[244] 1
x[245] 0
x[246] 0
x[247] 0
x[248] 1
x[249] 0
x[250] 0
x[251] 0
x[252] 1
x[253] 0
x[254] 0
x[255] 1
x[256] 0
x[257] 1
x[258] 1
x[259] 0
x[260] 0
x[261] 1
x[262] 1
x[263] 0
x[264] 0
x[265] 1
x[266] 1
x[267] 1
x[268] 0
x[269] 0
x[270] 0
x[271] 1
x[272] 1
x[273] 1
x[274] 1
x[275] 0
x[276] 1
x[277] 1
x[278] 0
x[279] 0
x[280] 0
x[281] 1
x[282] 0
x[283] 0
x[284] 1
x[285] 0
x[286] 1
x[287] 0
x[288] 1
x[289] 1
x[290] 0
x[291] 0
x[292] 1
x[293] 0
x[294] 1
x[295] 0
x[296] 1
x[297] 1
x[298] 0
x[299] 1
x[300] 1
x[301] 1
x[302] 0
x[303] 0
x[304] 0
x[305] 0
x[306] 0
x[307] 1
x[308] 0
x[309] 0
x[310] 1
x[311] 0
x[312] 0
x[313] 0
x[314] 1
x[315] 0
x[316] 1
x[317] 1
x[318] 1
x[319] 1
x[320] 0
x[321] 0
x[322] 0
x[323] 1.0000006313933039e+00
x[324] 0
x[325] 1
x[326] 0
x[327] 0
x[328] 1
x[329] 0
x[330] 0
x[331] 1
x[332] 0
x[333] 0
x[334] 0
x[335] 1
x[336] 1
x[337] 1
x[338] 1
x[339] 0
x[340] 0
x[341] 0
x[342] 1
x[343] 1
x[344] 0
x[345] 0
x[346] 0
x[347] 0
x[348] 1
x[349] 0
x[350] 1
x[351] 1
x[352] 0
x[353] 1
x[354] 1
x[355] 0
x[356] 1
x[357] 0
x[358] 1
x[359] 1
x[360] 0
x[361] 0
x[362] 0
x[363] 0
x[364] 1
x[365] 0
x[366] 0
x[367] 1
x[368] 0
x[369] 1
x[370] 0
x[371] 1
x[372] 1
x[373] 0
x[374] 1
x[375] 0
x[376] 1
x[377] 1
x[378] 0
x[379] 0
x[380] 1
x[381] 1
x[382] 1
x[383] 0
x[384] 0
x[385] 0
x[386] 0
x[387] 1
x[388] 1
x[389] 1
x[390] 1
x[391] 0
x[392] 0
x[393] 1
x[394] 1
x[395] 1
x[396] 1
x[397] 0
x[398] 0
x[399] 0
x[400] 0
x[401] 1
x[402] 1
x[403] 1
x[404] 1
x[405] 1
x[406] 1
x[407] 1
x[408] 0
x[409] 1
x[410] 1
x[411] 0
x[412] 0
x[413] 1
x[414] 1
x[415] 0
x[416] 0
x[417] 1
x[418] 1
x[419] 0
x[420] 1
x[421] 1
x[422] 0
x[423] 1
x[424] 1
x[425] 1
x[426] 0
x[427] 1
x[428] 0
x[429] 1
x[430] 1
x[431] 1
x[432] 1
x[433] 1
x[434] 1
x[435] 1
x[436] 0
x[437] 1
x[438] 1
x[439] 1
x[440] 0
x[441] 0
x[442] 1
x[443] 1
x[444] 0
x[445] 0
x[446] 0
x[447] 0
x[448] 1
x[449] 1
x[450] 0
x[451] 1
x[452] 1
x[453] 1
x[454] 1
x[455] 0
x[456] 0
x[457] 0
x[458] 1
x[459] 0
x[460] 0
x[461] 1
x[462] 0
x[463] 1
x[464] 1
x[465] 0
x[466] 0
x[467] 0
x[468] 1
x[469] 1
x[470] 0
x[471] 1
x[472] 1
x[473] 1
x[474] 1
x[475] 1
x[476] 1
x[477] 0
x[478] 1
x[479] 1
x[480] 1
x[481] 1
x[482] 1
x[483] 0
x[484] 1
x[485] 0
x[486] 1
x[487] 0
x[488] 0
x[489] 0
x[490] 1
x[491] 0
x[492] 1
x[493] 0
x[494] 1
x[495] 0
x[496] 1
x[497] 1
x[498] 1
x[499] 1
x[500] 1
x[501] 1
x[502] 1
x[503] 0
x[504] 1
x[505] 0
x[506] 1
x[507] 0
x[508] 0
x[509] 1
x[510] 0
x[511] 1
x[512] 0
x[513] 0
x[514] 0
x[515] 0
x[516] 0
x[517] 0
x[518] 0
x[519] 1
x[520] 1
x[521] 1
x[522] 0
x[523] 0
x[524] 0
x[525] 1
x[526] 0
x[527] 0
x[528] 1
x[529] 1
x[530] 0
x[531] 0
x[532] 0
x[533] 0
x[534] 1
x[535] 0
x[536] 1
x[537] 0
x[538] 1
x[539] 0
x[540] 0
x[541] 0
x[542] 1
x[543] 0
x[544] 0
x[545] 1
x[546] 1
x[547] 1
x[548] 0
x[549] 0
x[550] 0
x[551] 1
x[552] 1
x[553] 1
x[554] 0
x[555] 0
x[556] 0
x[557] 0
x[558] 1
x[559] 0
x[560] 0
x[561] 1
x[562] 0
x[563] 1
x[564] 1
x[565] 1
x[566] 1
x[567] 1
x[568] 0
x[569] 1
x[570] 0
x[571] 0
x[572] 1
x[573] 1
x[574] 1
x[575] 0
x[576] 1
x[577] 0
x[578] 0
x[579] 0
x[580] 1
x[581] 1
x[582] 0
x[583] 1
x[584] 0
x[585] 1
x[586] 1
x[587] 1
x[588] 0
x[589] 0
x[590] 1
x[591] 0
x[592] 0
x[593] 1
x[594] 0
x[595] 0
x[596] 1
x[597] 1
x[598] 0
x[599] 1
x[600] 0
x[601] 1
x[602] 1
x[603] 1
x[604] 0
x[605] 1
x[606] 0
x[607] 0
x[608] 1
x[609] 0
x[610] 1
x[611] 0
x[612] 0
x[613] 0
x[614] 0
x[615] 1
x[616] 0
x[617] 0
x[618] 0
x[619] 1
x[620] 0
x[621] 1
x[622] 0
x[623] 1
x[624] 0
x[625] 0
x[626] 1
x[627] 0
x[628] 0
x[629] 0
x[630] 0
x[631] 0
x[632] 1
x[633] 1
x[634] 1
x[635] 0
x[636] 0
x[637] 1
x[638] 1
x[639] 0
x[640] 1
x[641] 0
x[642] 0
x[643] 0
x[644] 0
x[645] 1
x[646] 0
x[647] 0
x[648] 1
x[649] 0
x[650] 0
x[651] 0
x[652] 0
x[653] 1
x[654] 1
x[655] 0
x[656] 1
x[657] 1
x[658] 0
x[659] 0
x[660] 0
x[661] 1
x[662] 1
x[663] 0
x[664] 1
x[665] 1
x[666] 1
x[667] 0
x[668] 0
x[669] 0
x[670] 1
x[671] 1
x[672] 1
x[673] 0
x[674] 0
x[675] 0
x[676] 1
x[677] 1
x[678] 0
x[679] 1
x[680] 0
x[681] 1
x[682] 1
x[683] 0
x[684] 0
x[685] 0
x[686] 1
x[687] 0
x[688] 1
x[689] 1
x[690] 0
x[691] 1
x[692] 1
x[693] 1
x[694] 0
x[695] 1
x[696] 0
x[697] 0
x[698] 0
x[699] 0
x[700] 0
x[701] 1
x[702] 0
x[703] 0
x[704] 1
x[705] 0
x[706] 0
x[707] 1
x[708] 1
x[709] 0
x[710] 1
x[711] 1
x[712] 0
x[713] 1
x[714] 1
x[715] 1
x[716] 0
x[717] 1
x[718] 1
x[719] 0
x[720] 0
x[721] 1
x[722] 0
x[723] 1
x[724] 1
x[725] 1
x[726] 0
x[727] 0
x[728] 1
x[729] 0
x[730] 0
x[731] 1
x[732] 0
x[733] 0
x[734] 0
x[735] 1
x[736] 0
x[737] 1
x[738] 1
x[739] 0
x[740] 1
x[741] 0
x[742] 1
x[743] 1
x[744] 1
x[745] 0
x[746] 0
x[747] 0
x[748] 1
x[749] 0
x[750] 1
x[751] 0
x[752] 1
x[753] 1
x[754] 0
x[755] 0
x[756] 1
x[757] 0
x[758] 0
x[759] 0
x[760] 0
x[761] 1
x[762] 1
x[763] 1
x[764] 0
x[765] 1
x[766] 0
x[767] 1
x[768] 0
x[769] 0
x[770] 1
x[771] 0
x[772] 1
x[773] 1
x[774] 0
x[775] 1
x[776] 0
x[777] 0
x[778] 1
x[779] 1
x[780] 0
x[781] 1
x[782] 0
x[783] 0
x[784] 1
x[785] 0
x[786] 1
x[787] 1
x[788] 0
x[789] 0
x[790] 1
x[791] 0
x[792] 1
x[793] 0
x[794] 0
x[795] 0
x[796] 0
x[797] 1
x[798] 0
x[799] 0
x[800] 1
x[801] 0
x[802] 1
x[803] 1
x[804] 0
x[805] 1
x[806] 0
x[807] 0
x[808] 0
x[809] 1
x[810] 1
x[811] 0
x[812] 1
x[813] 0
x[814] 0
x[815] 1
x[816] 0
x[817] 0
x[818] 1
x[819] 0
x[820] 1
x[821] 0
x[822] 1
x[823] 0
x[824] 1
x[825] 0
x[826] 1
x[827] 1
x[828] 0
x[829] 1
x[830] 0
x[831] 0
x[832] 0
x[833] 0
x[834] 1
x[835] 0
x[836] 0
x[837] 1
x[838] 1
x[839] 0
x[840] 1
x[841] 0
x[842] 1
x[843] 1
x[844] 0
x[845] 0
x[846] 1
x[847] 0
x[848] 1
x[849] 0
x[850] 1
x[851] 1
x[852] 0
x[853] 0
x[854] 0
x[855] 1
x[856] 0
x[857] 1
x[858] 1
x[859] 0
x[860] 0
x[861] 1
x[862] 1
x[863] 1
x[864] 0
x[865] 0
x[866] 0
x[867] 1
x[868] 0
x[869] 1
x[870] 1
x[871] 0
x[872] 1
x[873] 1
x[874] 0
x[875] 0
x[876] 0
x[877] 0
x[878] 0
x[879] 1
x[880] 0
x[881] 0
x[882] 1
x[883] 0
x[884] 0
x[885] 0
x[886] 0
x[887] 1
x[888] 1
x[889] 0
x[890] 0
x[891] 0
x[892] 1
x[893] 0
x[894] 0
x[895] 0
x[896] 0
x[897] 1
x[898] 0
x[899] 1
x[900] 0
x[901] 1
x[902] 0
x[903] 0
x[904] 0
x[905] 0
x[906] 0
x[907] 1
x[908] 1
x[909] 1
x[910] 1
x[911] 0
x[912] 1
x[913] 1
x[914] 1
x[915] 1
x[916] 1
x[917] 1
x[918] 1
x[919] 0
x[920] 0
x[921] 0
x[922] 0
x[923] 0
x[924] 0
x[925] 1
x[926] 1
x[927] 1
x[928] 1
x[929] 1
x[930] 0
x[931] 0
x[932] 0
x[933] 0
x[934] 1
x[935] 0
x[936] 1
x[937] 0
x[938] 0
x[939] 0
x[940] 1
x[941] 0
x[942] 1
x[943] 0
x[944] 0
x[945] 1
x[946] 1
x[947] 0
x[948] 0
x[949] 1
x[950] 1
x[951] 1
x[952] 0
x[953] 0
x[954] 1
x[955] 1
x[956] 0
x[957] 0
x[958] 0
x[959] 0
x[960] 0
x[961] 1
x[962] 0
x[963] 1
x[964] 1
x[965] 0
x[966] 0
x[967] 1
x[968] 1
x[969] 1
x[970] 0
x[971] 1
x[972] 0
x[973] 1
x[974] 0
x[975] 1
x[976] 1
x[977] 1
x[978] 1
x[979] 0
x[980] 0
x[981] 0
x[982] 0
x[983] 1
x[984] 0
x[985] 0
x[986] 0
x[987] 0
x[988] 0
x[989] 1
x[990] 0
x[991] 0
x[992] 0
x[993] 0
x[994] 1
x[995] 1
x[996] 1
x[997] 1
x[998] 1
x[999] 1
